NAME : portcgen-20-2
COMMENT : portcgen N=20, seed=2
TYPE : TSP
DIMENSION : 20
EDGE_WEIGHT_TYPE : EUC_2D
NODE_COORD_SECTION
1 330850 92971
2 564893 150635
3 -32508 -56478
4 -232654 -134783
5 -118016 -153961
6 268463 -323497
7 233280 178733
8 -425481 -100165
9 299633 -73398
10 -80651 249817
11 75902 33821
12 214562 362513
13 -197095 177924
14 -27627 -228373
15 28896 -40734
16 28668 -9370
17 -87975 189315
18 86419 -362827
19 502195 -79362
20 -266247 247006
